proyfinal/src/viki/013/experimentInOfficeAgust.take6.output/d45d5370-ccab-4947-871c-f7d64c810b08.als.out
Reading from standard input... Use '--help' for help.
============================[ Problem Statistics ]=============================
|                                                                             |
|  Number of variables:         87638                                         |
|  Number of clauses:          161767                                         |
|  Parse time:                   0.04 s                                       |
|                                                                             |
============================[ Search Statistics ]==============================
| Conflicts |          ORIGINAL         |          LEARNT          | Progress |
|           |    Vars  Clauses Literals |    Limit  Clauses Lit/Cl |          |
===============================================================================
|       100 |   63787   110321   275389 |    40451      100     10 | 27.215 % |
|       250 |   63786   110277   275299 |    44496      249     37 | 27.217 % |
|       475 |   63786   110277   275299 |    48945      474     51 | 27.217 % |
|       812 |   63726   110037   274732 |    53840      809     51 | 27.285 % |
|      1318 |   63726   110037   274732 |    59224     1315     51 | 27.285 % |
|      2077 |   63724   110027   274708 |    65146     2072     59 | 27.287 % |
|      3216 |   63724   110027   274708 |    71661     3211     74 | 27.287 % |
|      4924 |   56728    87812   219503 |    78827     4624     74 | 35.270 % |
|      7486 |   56665    87622   219053 |    86710     7181     64 | 35.342 % |
|     11330 |   56527    87032   217674 |    95381    10242     65 | 35.499 % |
|     17096 |   56275    85868   214996 |   104919    14172     65 | 35.787 % |
===============================================================================
restarts              : 74
conflicts             : 20899          (8430 /sec)
decisions             : 67873          (0.00 % random) (27378 /sec)
propagations          : 26368651       (10636308 /sec)
conflict literals     : 1301517        (45.57 % deleted)
Memory used           : 35.11 MB
CPU time              : 2.47912 s

INDETERMINATE
